NAME : portgen-30-12
COMMENT : portgen N=30, seed=12
TYPE : TSP
DIMENSION : 30
EDGE_WEIGHT_TYPE : EUC_2D
NODE_COORD_SECTION
1 992149 823700
2 658503 412865
3 995271 541325
4 979486 328279
5 154031 473760
6 775588 649034
7 674425 372571
8 335733 480068
9 930498 336194
10 464482 6117
11 935333 999935
12 792896 686725
13 493620 406208
14 628704 732102
15 226211 760426
16 691774 346851
17 457957 960362
18 887792 478162
19 840620 595066
20 21976 652734
21 4491 867375
22 622651 648120
23 157670 49185
24 73941 196136
25 686115 456802
26 385620 961709
27 597616 321421
28 19857 645298
29 365742 698140
30 525073 517108
